a280_1
0 10 288 11 287 286 12 285 284 268 283 282 281 280 279 24 25 26 27 28 29 136 135 134 133 38 39 40 37 36 35 34 30 33 31 32 22 21 20 19 18 16 17 15 13 14 1 269 267 266 265 262 261 216 214 215 218 217 260 263 264 257 256 258 255 252 248 247 246 240 241 242 243 244 245 239 259 238 237 236 235 254 253 249 251 250 0 270 271 272 273 274 146 145 144 143 142 278 277 276 275 148 149 150 151 152 153 154 155 156 147 157 158 186 159 160 164 161 163 162 137 138 139 140 141 23 2 213 212 211 210 209 208 207 206 205 204 203 202 201 199 198 197 196 195 193 192 191 190 189 188 187 184 185 167 166 165 127 128 129 130 131 132 41 6 42 43 44 45 46 47 48 49 50 51 70 71 72 73 74 75 78 79 80 81 82 83 84 85 86 87 88 89 90 91 92 93 94 124 119 118 116 112 111 110 122 123 126 69 68 8 54 55 56 57 58 59 60 61 62 63 64 65 66 76 77 95 96 97 98 99 100 101 102 103 104 105 106 107 108 109 120 121 67 52 53 8 125 117 113 114 115 181 182 170 171 172 173 174 175 176 177 178 180 179 169 183 168 8 194 200 229 228 225 224 221 220 219 222 223 226 227 230 231 232 233 234 0